30 100

1 30 114
2 26 220
3 30 64
4 24 198
5 16 195
6 26 19
7 11 60
8 7 136
9 20 67
10 20 211
11 27 113
12 21 88
13 20 188
14 8 18
15 16 292
16 14 86
17 11 13
18 11 226
19 14 1
20 12 289
21 6 293
22 28 166
23 24 53
24 25 42
25 11 263
26 15 181
27 29 296
28 18 289
29 2 263
30 26 15
